7,3,8,4,2,3,10,3,4,5,10,6,8,8,5,6,1,9,9,10;8,1,6,1,1,1,3,2,9,5,10,5,3,8,4,10;7,2,4,2,7,5,1,4,5,5,10,8,7,9;3,1,7,4,9,3,4,4,2,5,8,7,10,7,8,9,2,9,4,8,5,8,5,9;8,2,6,2,6,3,4,3,5,4,4,6,4,7,8,10,10,10;7,1,9,1,5,3,6,4,3,6,2,7,2,8,6,7,10,9,9,8,1,10;10,1,2,2,3,5,8,6,3,7,1,7,9,7,5,7,4,9,9,9;5,2,10,2,8,5,2,6,7,7,9,6,1,8,3,10,5,10;5,1,2,1,9,2,3,3,3,4,2,4,1,3,10,4,1,5,1,6,7,8,2,10,7,10;4,1,8,3,1,2,9,4,7,6,6,5,6,6,3,9,6,8,6,9,6,10;
